(set-logic QF_S)
(declare-fun var0 () String)
(assert (RegexIn var0 (RegexConcat (RegexUnion (RegexPlus (Str2Reg "00")) (RegexPlus (Str2Reg "1"))) (RegexConcat (RegexUnion (RegexPlus (Str2Reg "22")) (RegexPlus (Str2Reg "33"))) (RegexConcat (RegexPlus (RegexStar (Str2Reg "4"))) (RegexConcat (RegexStar (RegexUnion (Str2Reg "55") (Str2Reg "66"))) (RegexConcat (RegexPlus (RegexPlus (Str2Reg "777"))) (RegexConcat (RegexUnion (RegexStar (Str2Reg "88")) (RegexStar (Str2Reg "999"))) (RegexConcat (RegexStar (RegexStar (Str2Reg "a"))) (RegexConcat (RegexStar (RegexStar (Str2Reg "b"))) (RegexConcat (RegexPlus (RegexPlus (Str2Reg "c"))) (RegexConcat (RegexUnion (RegexUnion (Str2Reg "dd") (Str2Reg "e")) (RegexUnion (Str2Reg "ff") (Str2Reg "ggg"))) (RegexConcat (RegexStar (RegexPlus (Str2Reg "h"))) (RegexConcat (RegexUnion (RegexPlus (Str2Reg "i")) (RegexPlus (Str2Reg "jj"))) (RegexConcat (RegexPlus (RegexStar (Str2Reg "kk"))) (RegexConcat (RegexUnion (RegexPlus (Str2Reg "l")) (RegexPlus (Str2Reg "mm"))) (RegexConcat (RegexUnion (RegexUnion (Str2Reg "n") (Str2Reg "o")) (RegexUnion (Str2Reg "ppp") (Str2Reg "qqq"))) (RegexConcat (RegexPlus (RegexPlus (Str2Reg "rrr"))) (RegexConcat (RegexStar (RegexPlus (Str2Reg "s"))) (RegexConcat (RegexUnion (RegexStar (Str2Reg "t")) (RegexStar (Str2Reg "uuu"))) (RegexConcat (RegexUnion (RegexStar (Str2Reg "vv")) (RegexStar (Str2Reg "www"))) (RegexConcat (RegexUnion (RegexStar (Str2Reg "xxx")) (RegexStar (Str2Reg "yyy"))) (RegexConcat (RegexStar (RegexUnion (Str2Reg "zz") (Str2Reg "AA"))) (RegexUnion (RegexUnion (Str2Reg "BB") (Str2Reg "C")) (RegexUnion (Str2Reg "D") (Str2Reg "E"))))))))))))))))))))))))))
(check-sat)